
[LKWP_Main]	LKWP_GID	LKWP_ID	BS	Type	SKillID
0	1	1	1	1	0
1	1	2	2	1	0
2	1	3	3	1	0
3	1	4	4	1	0
4	1	5	5	1	0
5	1	6	6	1	0
6	2	7	1	1	0
7	2	8	2	1	0
8	2	9	3	1	0
9	2	10	4	1	0
10	2	11	5	1	0
11	2	12	6	1	0
12	3	13	1	1	0
13	3	14	2	1	0
14	3	15	3	1	0
15	3	16	4	1	0
16	3	17	5	1	0
17	3	18	6	1	0
18	4	19	1	1	0
19	4	20	2	1	0
20	4	21	3	1	0
21	4	22	4	1	0
22	4	23	5	1	0
23	4	24	6	1	0
24	5	25	1	1	0
25	5	26	2	1	0
26	5	27	3	1	0
27	5	28	4	1	0
28	5	29	5	1	0
29	5	30	6	1	0
30	6	31	1	2	474
31	6	32	2	2	474
32	6	33	3	2	474
33	6	34	4	2	474
34	6	35	5	2	474
35	6	36	6	2	474
36	1	37	7	1	0
37	2	38	7	1	0
38	3	39	7	1	0
39	4	40	7	1	0
40	5	41	7	1	0
41	6	42	7	2	474
42	7	43	1	4	0
43	7	44	2	4	0
44	7	45	3	4	0
45	7	46	4	4	0
46	7	47	5	4	0
47	7	48	6	4	0
48	7	49	7	4	0
49	1	50	8	1	0
50	2	51	8	1	0
51	3	52	8	1	0
52	4	53	8	1	0
53	5	54	8	1	0
54	6	55	8	2	474
55	7	56	8	4	0
56	8	57	1	5	0
57	8	58	2	5	0
58	8	59	3	5	0
59	8	60	4	5	0
60	8	61	5	5	0
61	8	62	6	5	0
62	8	63	7	5	0
63	8	64	8	5	0
64	9	65	1	5	0
65	9	66	2	5	0
66	9	67	3	5	0
67	9	68	4	5	0
68	9	69	5	5	0
69	9	70	6	5	0
70	9	71	7	5	0
71	9	72	8	5	0
72	10	73	1	5	0
73	10	74	2	5	0
74	10	75	3	5	0
75	10	76	4	5	0
76	10	77	5	5	0
77	10	78	6	5	0
78	10	79	7	5	0
79	10	80	8	5	0
80	11	81	1	5	0
81	11	82	2	5	0
82	11	83	3	5	0
83	11	84	4	5	0
84	11	85	5	5	0
85	11	86	6	5	0
86	11	87	7	5	0
87	11	88	8	5	0
88	12	89	1	5	0
89	12	90	2	5	0
90	12	91	3	5	0
91	12	92	4	5	0
92	12	93	5	5	0
93	12	94	6	5	0
94	12	95	7	5	0
95	12	96	8	5	0
96	13	97	1	5	0
97	13	98	2	5	0
98	13	99	3	5	0
99	13	100	4	5	0
100	13	101	5	5	0
101	13	102	6	5	0
102	13	103	7	5	0
103	13	104	8	5	0
104	14	105	1	6	0
105	14	106	2	6	0
106	14	107	3	6	0
107	14	108	4	6	0
108	14	109	5	6	0
109	14	110	6	6	0
110	14	111	7	6	0
111	14	112	8	6	0
112	15	113	1	6	0
113	15	114	2	6	0
114	15	115	3	6	0
115	15	116	4	6	0
116	15	117	5	6	0
117	15	118	6	6	0
118	15	119	7	6	0
119	15	120	8	6	0
120	16	121	1	6	0
121	16	122	2	6	0
122	16	123	3	6	0
123	16	124	4	6	0
124	16	125	5	6	0
125	16	126	6	6	0
126	16	127	7	6	0
127	16	128	8	6	0
128	17	129	1	8	0
129	17	130	2	8	0
130	17	131	3	8	0
131	17	132	4	8	0
132	17	133	5	8	0
133	17	134	6	8	0
134	17	135	7	8	0
135	17	136	8	8	0
136	18	137	1	8	0
137	18	138	2	8	0
138	18	139	3	8	0
139	18	140	4	8	0
140	18	141	5	8	0
141	18	142	6	8	0
142	18	143	7	8	0
143	18	144	8	8	0
144	19	145	1	8	0
145	19	146	2	8	0
146	19	147	3	8	0
147	19	148	4	8	0
148	19	149	5	8	0
149	19	150	6	8	0
150	19	151	7	8	0
151	19	152	8	8	0
152	20	153	1	8	0
153	20	154	2	8	0
154	20	155	3	8	0
155	20	156	4	8	0
156	20	157	5	8	0
157	20	158	6	8	0
158	20	159	7	8	0
159	20	160	8	8	0
160	21	161	1	8	0
161	21	162	2	8	0
162	21	163	3	8	0
163	21	164	4	8	0
164	21	165	5	8	0
165	21	166	6	8	0
166	21	167	7	8	0
167	21	168	8	8	0
168	22	169	1	8	0
169	22	170	2	8	0
170	22	171	3	8	0
171	22	172	4	8	0
172	22	173	5	8	0
173	22	174	6	8	0
174	22	175	7	8	0
175	22	176	8	8	0
176	23	177	1	8	0
177	23	178	2	8	0
178	23	179	3	8	0
179	23	180	4	8	0
180	23	181	5	8	0
181	23	182	6	8	0
182	23	183	7	8	0
183	23	184	8	8	0
184	24	185	1	8	0
185	24	186	2	8	0
186	24	187	3	8	0
187	24	188	4	8	0
188	24	189	5	8	0
189	24	190	6	8	0
190	24	191	7	8	0
191	24	192	8	8	0
192	25	193	1	8	0
193	25	194	2	8	0
194	25	195	3	8	0
195	25	196	4	8	0
196	25	197	5	8	0
197	25	198	6	8	0
198	25	199	7	8	0
199	25	200	8	8	0
200	26	201	1	8	0
201	26	202	2	8	0
202	26	203	3	8	0
203	26	204	4	8	0
204	26	205	5	8	0
205	26	206	6	8	0
206	26	207	7	8	0
207	26	208	8	8	0
208	27	209	1	2	597
209	27	210	2	2	598
210	27	211	3	2	599
211	27	212	4	2	600
212	27	213	5	2	601
213	27	214	6	2	602
214	27	215	7	2	603
215	27	216	8	2	604
216	28	217	1	6	0
217	28	218	2	6	0
218	28	219	3	6	0
219	28	220	4	6	0
220	28	221	5	6	0
221	28	222	6	6	0
222	28	223	7	6	0
223	28	224	8	6	0
224	1	225	9	1	0
225	2	226	9	1	0
226	3	227	9	1	0
227	4	228	9	1	0
228	5	229	9	1	0
229	6	230	9	2	474
230	7	231	9	4	0
231	8	232	9	5	0
232	9	233	9	5	0
233	10	234	9	5	0
234	11	235	9	5	0
235	12	236	9	5	0
236	13	237	9	5	0
237	14	238	9	6	0
238	15	239	9	6	0
239	16	240	9	6	0
240	17	241	9	8	0
241	18	242	9	8	0
242	19	243	9	8	0
243	20	244	9	8	0
244	21	245	9	8	0
245	22	246	9	8	0
246	23	247	9	8	0
247	24	248	9	8	0
248	25	249	9	8	0
249	26	250	9	8	0
250	27	251	9	2	674
251	28	252	9	6	0

[LKWP_Value]	LKWP_ID	Order	ForceID	Value
0	1	0	3	300
1	1	1	4	105
2	1	2	6	1000
3	1	3	8	70
4	1	4	9	15
5	1	5	34	3
6	1	6	35	3
7	1	7	30	5
8	1	8	32	5
9	1	9	5	40
10	2	0	3	300
11	2	1	4	105
12	2	2	6	1000
13	2	3	8	70
14	2	4	9	15
15	2	5	34	3
16	2	6	35	3
17	2	7	30	5
18	2	8	32	5
19	2	9	5	40
20	3	0	3	105
21	3	1	4	300
22	3	2	6	1000
23	3	3	8	70
24	3	4	9	15
25	3	5	34	3
26	3	6	35	3
27	3	7	32	5
28	3	8	30	5
29	3	9	5	40
30	4	0	3	105
31	4	1	4	300
32	4	2	6	1000
33	4	3	8	70
34	4	4	9	20
35	4	5	34	3
36	4	6	35	3
37	4	7	32	5
38	4	8	30	5
39	4	9	5	40
40	5	0	3	300
41	5	1	4	105
42	5	2	6	1000
43	5	3	8	70
44	5	4	9	15
45	5	5	34	3
46	5	6	35	3
47	5	7	30	5
48	5	8	32	5
49	5	9	5	70
50	6	0	3	300
51	6	1	4	105
52	6	2	6	1000
53	6	3	8	70
54	6	4	9	15
55	6	5	34	3
56	6	6	35	3
57	6	7	30	5
58	6	8	32	5
59	6	9	5	40
60	7	0	3	375
61	7	1	4	150
62	7	2	6	1300
63	7	3	8	70
64	7	4	9	15
65	7	5	34	3
66	7	6	35	3
67	7	7	30	5
68	7	8	32	5
69	7	9	5	60
70	8	0	3	375
71	8	1	4	150
72	8	2	6	1300
73	8	3	8	70
74	8	4	9	15
75	8	5	34	3
76	8	6	35	3
77	8	7	30	5
78	8	8	32	5
79	8	9	5	60
80	9	0	3	150
81	9	1	4	375
82	9	2	6	1300
83	9	3	8	70
84	9	4	9	15
85	9	5	34	3
86	9	6	35	3
87	9	7	32	5
88	9	8	30	5
89	9	9	5	60
90	10	0	3	150
91	10	1	4	375
92	10	2	6	1300
93	10	3	8	70
94	10	4	9	20
95	10	5	34	3
96	10	6	35	3
97	10	7	32	5
98	10	8	30	5
99	10	9	5	60
100	11	0	3	375
101	11	1	4	150
102	11	2	6	1300
103	11	3	8	70
104	11	4	9	15
105	11	5	34	3
106	11	6	35	3
107	11	7	30	5
108	11	8	32	5
109	11	9	5	90
110	12	0	3	375
111	12	1	4	150
112	12	2	6	1300
113	12	3	8	70
114	12	4	9	15
115	12	5	34	3
116	12	6	35	3
117	12	7	30	5
118	12	8	32	5
119	12	9	5	60
120	13	0	3	450
121	13	1	4	195
122	13	2	6	1600
123	13	3	8	70
124	13	4	9	15
125	13	5	34	3
126	13	6	35	3
127	13	7	30	5
128	13	8	32	5
129	13	9	5	80
130	14	0	3	450
131	14	1	4	195
132	14	2	6	1600
133	14	3	8	70
134	14	4	9	15
135	14	5	34	3
136	14	6	35	3
137	14	7	30	5
138	14	8	32	5
139	14	9	5	80
140	15	0	3	195
141	15	1	4	450
142	15	2	6	1600
143	15	3	8	70
144	15	4	9	15
145	15	5	34	3
146	15	6	35	3
147	15	7	32	5
148	15	8	30	5
149	15	9	5	80
150	16	0	3	195
151	16	1	4	450
152	16	2	6	1600
153	16	3	8	70
154	16	4	9	20
155	16	5	34	3
156	16	6	35	3
157	16	7	32	5
158	16	8	30	5
159	16	9	5	80
160	17	0	3	450
161	17	1	4	195
162	17	2	6	1600
163	17	3	8	70
164	17	4	9	15
165	17	5	34	3
166	17	6	35	3
167	17	7	30	5
168	17	8	32	5
169	17	9	5	110
170	18	0	3	450
171	18	1	4	195
172	18	2	6	1600
173	18	3	8	70
174	18	4	9	15
175	18	5	34	3
176	18	6	35	3
177	18	7	30	5
178	18	8	32	5
179	18	9	5	80
180	19	0	3	495
181	19	1	4	240
182	19	2	6	1900
183	19	3	8	70
184	19	4	9	15
185	19	5	34	3
186	19	6	35	3
187	19	7	30	5
188	19	8	32	5
189	19	9	5	100
190	20	0	3	495
191	20	1	4	240
192	20	2	6	1900
193	20	3	8	70
194	20	4	9	15
195	20	5	34	3
196	20	6	35	3
197	20	7	30	5
198	20	8	32	5
199	20	9	5	100
200	21	0	3	240
201	21	1	4	495
202	21	2	6	1900
203	21	3	8	70
204	21	4	9	15
205	21	5	34	3
206	21	6	35	3
207	21	7	32	5
208	21	8	30	5
209	21	9	5	100
210	22	0	3	240
211	22	1	4	495
212	22	2	6	1900
213	22	3	8	70
214	22	4	9	20
215	22	5	34	3
216	22	6	35	3
217	22	7	32	5
218	22	8	30	5
219	22	9	5	100
220	23	0	3	495
221	23	1	4	240
222	23	2	6	1900
223	23	3	8	70
224	23	4	9	15
225	23	5	34	3
226	23	6	35	3
227	23	7	30	5
228	23	8	32	5
229	23	9	5	130
230	24	0	3	495
231	24	1	4	240
232	24	2	6	1900
233	24	3	8	70
234	24	4	9	15
235	24	5	34	3
236	24	6	35	3
237	24	7	30	5
238	24	8	32	5
239	24	9	5	100
240	25	0	3	555
241	25	1	4	285
242	25	2	6	2200
243	25	3	8	70
244	25	4	9	15
245	25	5	34	3
246	25	6	35	3
247	25	7	30	5
248	25	8	32	5
249	25	9	5	120
250	26	0	3	555
251	26	1	4	285
252	26	2	6	2200
253	26	3	8	70
254	26	4	9	15
255	26	5	34	3
256	26	6	35	3
257	26	7	30	5
258	26	8	32	5
259	26	9	5	120
260	27	0	3	285
261	27	1	4	555
262	27	2	6	2200
263	27	3	8	70
264	27	4	9	15
265	27	5	34	3
266	27	6	35	3
267	27	7	32	5
268	27	8	30	5
269	27	9	5	120
270	28	0	3	285
271	28	1	4	555
272	28	2	6	2200
273	28	3	8	70
274	28	4	9	15
275	28	5	34	3
276	28	6	35	3
277	28	7	32	5
278	28	8	30	5
279	28	9	5	120
280	29	0	3	555
281	29	1	4	285
282	29	2	6	2200
283	29	3	8	70
284	29	4	9	15
285	29	5	34	3
286	29	6	35	3
287	29	7	30	5
288	29	8	32	5
289	29	9	5	150
290	30	0	3	555
291	30	1	4	285
292	30	2	6	2200
293	30	3	8	70
294	30	4	9	15
295	30	5	34	3
296	30	6	35	3
297	30	7	30	5
298	30	8	32	5
299	30	9	5	120
300	31	0	8	20
301	31	1	114	10
302	32	0	8	20
303	32	1	114	10
304	33	0	8	20
305	33	1	114	10
306	34	0	8	20
307	34	1	114	10
308	35	0	8	20
309	35	1	114	10
310	36	0	8	20
311	36	1	114	10
312	37	0	3	300
313	37	1	4	105
314	37	2	6	1000
315	37	3	8	70
316	37	4	9	15
317	37	5	34	3
318	37	6	35	3
319	37	7	30	5
320	37	8	32	5
321	37	9	5	40
322	38	0	3	375
323	38	1	4	150
324	38	2	6	1300
325	38	3	8	70
326	38	4	9	15
327	38	5	34	3
328	38	6	35	3
329	38	7	30	5
330	38	8	32	5
331	38	9	5	60
332	39	0	3	450
333	39	1	4	195
334	39	2	6	1600
335	39	3	8	70
336	39	4	9	15
337	39	5	34	3
338	39	6	35	3
339	39	7	30	5
340	39	8	32	5
341	39	9	5	80
342	40	0	3	495
343	40	1	4	240
344	40	2	6	1900
345	40	3	8	70
346	40	4	9	15
347	40	5	34	3
348	40	6	35	3
349	40	7	30	5
350	40	8	32	5
351	40	9	5	100
352	41	0	3	555
353	41	1	4	285
354	41	2	6	2200
355	41	3	8	70
356	41	4	9	15
357	41	5	34	3
358	41	6	35	3
359	41	7	30	5
360	41	8	32	5
361	41	9	5	120
362	42	0	8	20
363	42	1	114	10
364	43	0	8	150
365	43	1	9	15
366	43	2	3	1000
367	43	3	4	300
368	43	4	6	2500
369	43	5	34	4
370	43	6	35	4
371	43	7	30	30
372	43	8	32	10
373	43	9	5	600
374	44	0	8	150
375	44	1	9	15
376	44	2	3	1000
377	44	3	4	300
378	44	4	6	2500
379	44	5	34	4
380	44	6	35	4
381	44	7	30	30
382	44	8	32	10
383	44	9	5	600
384	45	0	8	150
385	45	1	9	15
386	45	2	3	300
387	45	3	4	1000
388	45	4	6	2500
389	45	5	34	4
390	45	6	35	4
391	45	7	30	10
392	45	8	32	30
393	45	9	5	600
394	46	0	8	150
395	46	1	9	15
396	46	2	3	300
397	46	3	4	1000
398	46	4	6	2500
399	46	5	34	4
400	46	6	35	4
401	46	7	30	10
402	46	8	32	30
403	46	9	5	600
404	47	0	8	150
405	47	1	9	15
406	47	2	3	1000
407	47	3	4	300
408	47	4	6	2500
409	47	5	34	4
410	47	6	35	4
411	47	7	30	30
412	47	8	32	10
413	47	9	5	600
414	48	0	8	150
415	48	1	9	15
416	48	2	3	1000
417	48	3	4	300
418	48	4	6	2500
419	48	5	34	4
420	48	6	35	4
421	48	7	30	30
422	48	8	32	10
423	48	9	5	600
424	49	0	8	150
425	49	1	9	15
426	49	2	3	1000
427	49	3	4	300
428	49	4	6	2500
429	49	5	34	4
430	49	6	35	4
431	49	7	30	30
432	49	8	32	10
433	49	9	5	600
434	50	0	3	105
435	50	1	4	300
436	50	2	6	1000
437	50	3	8	70
438	50	4	9	15
439	50	5	34	3
440	50	6	35	3
441	50	7	30	5
442	50	8	32	5
443	50	9	5	40
444	51	0	3	150
445	51	1	4	375
446	51	2	6	1300
447	51	3	8	70
448	51	4	9	15
449	51	5	34	3
450	51	6	35	3
451	51	7	30	5
452	51	8	32	5
453	51	9	5	60
454	52	0	3	195
455	52	1	4	450
456	52	2	6	1600
457	52	3	8	70
458	52	4	9	15
459	52	5	34	3
460	52	6	35	3
461	52	7	30	5
462	52	8	32	5
463	52	9	5	80
464	53	0	3	240
465	53	1	4	495
466	53	2	6	1900
467	53	3	8	70
468	53	4	9	15
469	53	5	34	3
470	53	6	35	3
471	53	7	30	5
472	53	8	32	5
473	53	9	5	100
474	54	0	3	285
475	54	1	4	555
476	54	2	6	2200
477	54	3	8	70
478	54	4	9	15
479	54	5	34	3
480	54	6	35	3
481	54	7	30	5
482	54	8	32	5
483	54	9	5	120
484	55	0	8	20
485	55	1	114	10
486	56	0	8	150
487	56	1	9	15
488	56	2	3	300
489	56	3	4	1000
490	56	4	6	2500
491	56	5	34	4
492	56	6	35	4
493	56	7	30	10
494	56	8	32	30
495	56	9	5	600
496	57	0	1	300
497	57	1	113	30
498	57	2	6	250
499	57	3	5	30
500	57	4	8	10
501	57	5	114	4
502	57	6	78	20
503	57	7	74	10
504	57	8	80	10
505	58	0	1	300
506	58	1	113	30
507	58	2	6	250
508	58	3	5	30
509	58	4	8	10
510	58	5	114	4
511	58	6	78	20
512	58	7	74	10
513	58	8	80	10
514	59	0	1	300
515	59	1	113	30
516	59	2	6	250
517	59	3	5	30
518	59	4	8	10
519	59	5	114	4
520	59	6	78	20
521	59	7	74	10
522	59	8	80	10
523	60	0	1	300
524	60	1	113	30
525	60	2	6	250
526	60	3	5	30
527	60	4	8	10
528	60	5	114	4
529	60	6	78	20
530	60	7	74	10
531	60	8	80	10
532	61	0	1	300
533	61	1	113	30
534	61	2	6	250
535	61	3	5	30
536	61	4	8	10
537	61	5	114	4
538	61	6	78	20
539	61	7	74	10
540	61	8	80	10
541	62	0	1	300
542	62	1	113	30
543	62	2	6	250
544	62	3	5	30
545	62	4	8	10
546	62	5	114	4
547	62	6	78	20
548	62	7	74	10
549	62	8	80	10
550	63	0	1	300
551	63	1	113	30
552	63	2	6	250
553	63	3	5	30
554	63	4	8	10
555	63	5	114	4
556	63	6	78	20
557	63	7	74	10
558	63	8	80	10
559	64	0	1	300
560	64	1	113	30
561	64	2	6	250
562	64	3	5	30
563	64	4	8	10
564	64	5	114	4
565	64	6	78	20
566	64	7	74	10
567	64	8	80	10
568	65	0	1	300
569	65	1	113	30
570	65	2	6	250
571	65	3	5	30
572	65	4	8	8
573	65	5	114	3
574	65	6	78	20
575	65	7	74	10
576	65	8	80	5
577	66	0	1	300
578	66	1	113	30
579	66	2	6	250
580	66	3	5	30
581	66	4	8	8
582	66	5	114	3
583	66	6	78	20
584	66	7	74	10
585	66	8	80	5
586	67	0	1	300
587	67	1	113	30
588	67	2	6	250
589	67	3	5	30
590	67	4	8	8
591	67	5	114	3
592	67	6	78	20
593	67	7	74	10
594	67	8	80	5
595	68	0	1	300
596	68	1	113	30
597	68	2	6	250
598	68	3	5	30
599	68	4	8	8
600	68	5	114	3
601	68	6	78	20
602	68	7	74	10
603	68	8	80	5
604	69	0	1	300
605	69	1	113	30
606	69	2	6	250
607	69	3	5	30
608	69	4	8	8
609	69	5	114	3
610	69	6	78	20
611	69	7	74	10
612	69	8	80	5
613	70	0	1	300
614	70	1	113	30
615	70	2	6	250
616	70	3	5	30
617	70	4	8	8
618	70	5	114	3
619	70	6	78	20
620	70	7	74	10
621	70	8	80	5
622	71	0	1	300
623	71	1	113	30
624	71	2	6	250
625	71	3	5	30
626	71	4	8	8
627	71	5	114	3
628	71	6	78	20
629	71	7	74	10
630	71	8	80	5
631	72	0	1	300
632	72	1	113	30
633	72	2	6	250
634	72	3	5	30
635	72	4	8	8
636	72	5	114	3
637	72	6	78	20
638	72	7	74	10
639	72	8	80	5
640	73	0	1	250
641	73	1	113	25
642	73	2	6	200
643	73	3	5	25
644	73	4	8	6
645	73	5	114	2
646	73	6	78	15
647	73	7	74	5
648	74	0	1	250
649	74	1	113	25
650	74	2	6	200
651	74	3	5	25
652	74	4	8	6
653	74	5	114	2
654	74	6	78	15
655	74	7	74	5
656	75	0	1	250
657	75	1	113	25
658	75	2	6	200
659	75	3	5	25
660	75	4	8	6
661	75	5	114	2
662	75	6	78	15
663	75	7	74	5
664	76	0	1	250
665	76	1	113	25
666	76	2	6	200
667	76	3	5	25
668	76	4	8	6
669	76	5	114	2
670	76	6	78	15
671	76	7	74	5
672	77	0	1	250
673	77	1	113	25
674	77	2	6	200
675	77	3	5	25
676	77	4	8	6
677	77	5	114	2
678	77	6	78	15
679	77	7	74	5
680	78	0	1	250
681	78	1	113	25
682	78	2	6	200
683	78	3	5	25
684	78	4	8	6
685	78	5	114	2
686	78	6	78	15
687	78	7	74	5
688	79	0	1	250
689	79	1	113	25
690	79	2	6	200
691	79	3	5	25
692	79	4	8	6
693	79	5	114	2
694	79	6	78	15
695	79	7	74	5
696	80	0	1	250
697	80	1	113	25
698	80	2	6	200
699	80	3	5	25
700	80	4	8	6
701	80	5	114	2
702	80	6	78	15
703	80	7	74	5
704	81	0	1	200
705	81	1	113	20
706	81	2	6	150
707	81	3	5	20
708	81	4	8	4
709	81	5	114	1
710	81	6	78	10
711	82	0	1	200
712	82	1	113	20
713	82	2	6	150
714	82	3	5	20
715	82	4	8	4
716	82	5	114	1
717	82	6	78	10
718	83	0	1	200
719	83	1	113	20
720	83	2	6	150
721	83	3	5	20
722	83	4	8	4
723	83	5	114	1
724	83	6	78	10
725	84	0	1	200
726	84	1	113	20
727	84	2	6	150
728	84	3	5	20
729	84	4	8	4
730	84	5	114	1
731	84	6	78	10
732	85	0	1	200
733	85	1	113	20
734	85	2	6	150
735	85	3	5	20
736	85	4	8	4
737	85	5	114	1
738	85	6	78	10
739	86	0	1	200
740	86	1	113	20
741	86	2	6	150
742	86	3	5	20
743	86	4	8	4
744	86	5	114	1
745	86	6	78	10
746	87	0	1	200
747	87	1	113	20
748	87	2	6	150
749	87	3	5	20
750	87	4	8	4
751	87	5	114	1
752	87	6	78	10
753	88	0	1	200
754	88	1	113	20
755	88	2	6	150
756	88	3	5	20
757	88	4	8	4
758	88	5	114	1
759	88	6	78	10
760	89	0	1	150
761	89	1	113	15
762	89	2	6	100
763	89	3	5	15
764	89	4	8	2
765	90	0	1	150
766	90	1	113	15
767	90	2	6	100
768	90	3	5	15
769	90	4	8	2
770	91	0	1	150
771	91	1	113	15
772	91	2	6	100
773	91	3	5	15
774	91	4	8	2
775	92	0	1	150
776	92	1	113	15
777	92	2	6	100
778	92	3	5	15
779	92	4	8	2
780	93	0	1	150
781	93	1	113	15
782	93	2	6	100
783	93	3	5	15
784	93	4	8	2
785	94	0	1	150
786	94	1	113	15
787	94	2	6	100
788	94	3	5	15
789	94	4	8	2
790	95	0	1	150
791	95	1	113	15
792	95	2	6	100
793	95	3	5	15
794	95	4	8	2
795	96	0	1	150
796	96	1	113	15
797	96	2	6	100
798	96	3	5	15
799	96	4	8	2
800	97	0	1	100
801	97	1	113	10
802	97	2	6	100
803	97	3	5	10
804	98	0	1	100
805	98	1	113	10
806	98	2	6	100
807	98	3	5	10
808	99	0	1	100
809	99	1	113	10
810	99	2	6	100
811	99	3	5	10
812	100	0	1	100
813	100	1	113	10
814	100	2	6	100
815	100	3	5	10
816	101	0	1	100
817	101	1	113	10
818	101	2	6	100
819	101	3	5	10
820	102	0	1	100
821	102	1	113	10
822	102	2	6	100
823	102	3	5	10
824	103	0	1	100
825	103	1	113	10
826	103	2	6	100
827	103	3	5	10
828	104	0	1	100
829	104	1	113	10
830	104	2	6	100
831	104	3	5	10
832	105	0	1	400
833	105	1	113	30
834	105	2	6	250
835	105	3	5	45
836	105	4	8	15
837	105	5	114	5
838	105	6	78	20
839	105	7	74	20
840	105	8	80	15
841	106	0	1	400
842	106	1	113	30
843	106	2	6	250
844	106	3	5	45
845	106	4	8	15
846	106	5	114	5
847	106	6	78	20
848	106	7	74	20
849	106	8	80	15
850	107	0	1	400
851	107	1	113	30
852	107	2	6	250
853	107	3	5	45
854	107	4	8	15
855	107	5	114	5
856	107	6	78	20
857	107	7	74	20
858	107	8	80	15
859	108	0	1	400
860	108	1	113	30
861	108	2	6	250
862	108	3	5	45
863	108	4	8	15
864	108	5	114	5
865	108	6	78	20
866	108	7	74	20
867	108	8	80	15
868	109	0	1	400
869	109	1	113	30
870	109	2	6	250
871	109	3	5	45
872	109	4	8	15
873	109	5	114	5
874	109	6	78	20
875	109	7	74	20
876	109	8	80	15
877	110	0	1	400
878	110	1	113	30
879	110	2	6	250
880	110	3	5	45
881	110	4	8	15
882	110	5	114	5
883	110	6	78	20
884	110	7	74	20
885	110	8	80	15
886	111	0	1	400
887	111	1	113	30
888	111	2	6	250
889	111	3	5	45
890	111	4	8	15
891	111	5	114	5
892	111	6	78	20
893	111	7	74	20
894	111	8	80	15
895	112	0	1	400
896	112	1	113	30
897	112	2	6	250
898	112	3	5	45
899	112	4	8	15
900	112	5	114	5
901	112	6	78	20
902	112	7	74	20
903	112	8	80	15
904	113	0	41	8
905	113	1	107	25
906	113	2	113	10
907	113	3	5	20
908	113	4	1	50
909	114	0	41	8
910	114	1	107	25
911	114	2	113	10
912	114	3	5	20
913	114	4	1	50
914	115	0	41	8
915	115	1	107	25
916	115	2	113	10
917	115	3	5	20
918	115	4	1	50
919	116	0	41	8
920	116	1	107	25
921	116	2	113	10
922	116	3	5	20
923	116	4	1	50
924	117	0	41	8
925	117	1	107	25
926	117	2	113	10
927	117	3	5	20
928	117	4	1	50
929	118	0	41	8
930	118	1	107	25
931	118	2	113	10
932	118	3	5	20
933	118	4	1	50
934	119	0	41	8
935	119	1	107	25
936	119	2	113	10
937	119	3	5	20
938	119	4	1	50
939	120	0	41	8
940	120	1	107	25
941	120	2	113	10
942	120	3	5	20
943	120	4	1	50
944	121	0	41	12
945	121	1	107	50
946	121	2	113	15
947	121	3	5	30
948	121	4	1	100
949	122	0	41	12
950	122	1	107	50
951	122	2	113	15
952	122	3	5	30
953	122	4	1	100
954	123	0	41	12
955	123	1	107	50
956	123	2	113	15
957	123	3	5	30
958	123	4	1	100
959	124	0	41	12
960	124	1	107	50
961	124	2	113	15
962	124	3	5	30
963	124	4	1	100
964	125	0	41	12
965	125	1	107	50
966	125	2	113	15
967	125	3	5	30
968	125	4	1	100
969	126	0	41	12
970	126	1	107	50
971	126	2	113	15
972	126	3	5	30
973	126	4	1	100
974	127	0	41	12
975	127	1	107	50
976	127	2	113	15
977	127	3	5	30
978	127	4	1	100
979	128	0	41	12
980	128	1	107	50
981	128	2	113	15
982	128	3	5	30
983	128	4	1	100
984	129	0	113	10
985	129	1	6	50
986	130	0	113	10
987	130	1	6	50
988	131	0	113	10
989	131	1	6	50
990	132	0	113	10
991	132	1	6	50
992	133	0	113	10
993	133	1	6	50
994	134	0	113	10
995	134	1	6	50
996	135	0	113	10
997	135	1	6	50
998	136	0	113	10
999	136	1	6	50
1000	137	0	113	10
1001	137	1	6	50
1002	138	0	113	10
1003	138	1	6	50
1004	139	0	113	10
1005	139	1	6	50
1006	140	0	113	10
1007	140	1	6	50
1008	141	0	113	10
1009	141	1	6	50
1010	142	0	113	10
1011	142	1	6	50
1012	143	0	113	10
1013	143	1	6	50
1014	144	0	113	10
1015	144	1	6	50
1016	145	0	113	10
1017	145	1	6	50
1018	146	0	113	10
1019	146	1	6	50
1020	147	0	113	10
1021	147	1	6	50
1022	148	0	113	10
1023	148	1	6	50
1024	149	0	113	10
1025	149	1	6	50
1026	150	0	113	10
1027	150	1	6	50
1028	151	0	113	10
1029	151	1	6	50
1030	152	0	113	10
1031	152	1	6	50
1032	153	0	113	10
1033	153	1	6	50
1034	154	0	113	10
1035	154	1	6	50
1036	155	0	113	10
1037	155	1	6	50
1038	156	0	113	10
1039	156	1	6	50
1040	157	0	113	10
1041	157	1	6	50
1042	158	0	113	10
1043	158	1	6	50
1044	159	0	113	10
1045	159	1	6	50
1046	160	0	113	10
1047	160	1	6	50
1048	161	0	113	10
1049	161	1	6	50
1050	162	0	113	10
1051	162	1	6	50
1052	163	0	113	10
1053	163	1	6	50
1054	164	0	113	10
1055	164	1	6	50
1056	165	0	113	10
1057	165	1	6	50
1058	166	0	113	10
1059	166	1	6	50
1060	167	0	113	10
1061	167	1	6	50
1062	168	0	113	10
1063	168	1	6	50
1064	169	0	113	10
1065	169	1	6	50
1066	170	0	113	10
1067	170	1	6	50
1068	171	0	113	10
1069	171	1	6	50
1070	172	0	113	10
1071	172	1	6	50
1072	173	0	113	10
1073	173	1	6	50
1074	174	0	113	10
1075	174	1	6	50
1076	175	0	113	10
1077	175	1	6	50
1078	176	0	113	10
1079	176	1	6	50
1080	177	0	113	10
1081	177	1	6	50
1082	178	0	113	10
1083	178	1	6	50
1084	179	0	113	10
1085	179	1	6	50
1086	180	0	113	10
1087	180	1	6	50
1088	181	0	113	10
1089	181	1	6	50
1090	182	0	113	10
1091	182	1	6	50
1092	183	0	113	10
1093	183	1	6	50
1094	184	0	113	10
1095	184	1	6	50
1096	185	0	113	10
1097	185	1	6	50
1098	186	0	113	10
1099	186	1	6	50
1100	187	0	113	10
1101	187	1	6	50
1102	188	0	113	10
1103	188	1	6	50
1104	189	0	113	10
1105	189	1	6	50
1106	190	0	113	10
1107	190	1	6	50
1108	191	0	113	10
1109	191	1	6	50
1110	192	0	113	10
1111	192	1	6	50
1112	193	0	113	10
1113	193	1	6	50
1114	194	0	113	10
1115	194	1	6	50
1116	195	0	113	10
1117	195	1	6	50
1118	196	0	113	10
1119	196	1	6	50
1120	197	0	113	10
1121	197	1	6	50
1122	198	0	113	10
1123	198	1	6	50
1124	199	0	113	10
1125	199	1	6	50
1126	200	0	113	10
1127	200	1	6	50
1128	201	0	113	10
1129	201	1	6	50
1130	201	2	1	50
1131	201	3	5	10
1132	201	4	78	5
1133	201	5	114	1
1134	201	6	8	2
1135	202	0	113	10
1136	202	1	6	50
1137	202	2	1	50
1138	202	3	5	10
1139	202	4	78	5
1140	202	5	114	1
1141	202	6	8	2
1142	203	0	113	10
1143	203	1	6	50
1144	203	2	1	50
1145	203	3	5	10
1146	203	4	78	5
1147	203	5	114	1
1148	203	6	8	2
1149	204	0	113	10
1150	204	1	6	50
1151	204	2	1	50
1152	204	3	5	10
1153	204	4	78	5
1154	204	5	114	1
1155	204	6	8	2
1156	205	0	113	10
1157	205	1	6	50
1158	205	2	1	50
1159	205	3	5	10
1160	205	4	78	5
1161	205	5	114	1
1162	205	6	8	2
1163	206	0	113	10
1164	206	1	6	50
1165	206	2	1	50
1166	206	3	5	10
1167	206	4	78	5
1168	206	5	114	1
1169	206	6	8	2
1170	207	0	113	10
1171	207	1	6	50
1172	207	2	1	50
1173	207	3	5	10
1174	207	4	78	5
1175	207	5	114	1
1176	207	6	8	2
1177	208	0	113	10
1178	208	1	6	50
1179	208	2	1	50
1180	208	3	5	10
1181	208	4	78	5
1182	208	5	114	1
1183	208	6	8	2
1184	209	0	9	5
1185	209	1	25	5
1186	209	2	125	5
1187	209	3	1	3000
1188	209	4	5	1300
1189	209	5	113	1000
1190	209	6	80	130
1191	210	0	9	5
1192	210	1	25	5
1193	210	2	125	5
1194	210	3	1	2400
1195	210	4	5	900
1196	210	5	113	850
1197	210	6	80	120
1198	211	0	9	5
1199	211	1	25	5
1200	211	2	125	5
1201	211	3	1	1100
1202	211	4	5	400
1203	211	5	113	1300
1204	211	6	80	160
1205	212	0	9	5
1206	212	1	25	5
1207	212	2	125	5
1208	212	3	1	1300
1209	212	4	5	500
1210	212	5	114	25
1211	212	6	8	110
1212	213	0	9	5
1213	213	1	25	5
1214	213	2	125	5
1215	213	3	1	2600
1216	213	4	5	1500
1217	213	5	114	18
1218	213	6	8	75
1219	214	0	9	5
1220	214	1	25	5
1221	214	2	125	5
1222	214	3	1	2100
1223	214	4	5	1000
1224	214	5	114	20
1225	214	6	8	80
1226	215	0	9	5
1227	215	1	25	5
1228	215	2	125	5
1229	215	3	1	2300
1230	215	4	5	1400
1231	215	5	113	800
1232	215	6	80	110
1233	216	0	9	5
1234	216	1	25	5
1235	216	2	125	5
1236	216	3	1	1500
1237	216	4	5	600
1238	216	5	114	23
1239	216	6	8	100
1240	217	0	41	15
1241	217	1	107	100
1242	217	2	113	20
1243	217	3	114	1
1244	217	4	8	2
1245	217	5	78	5
1246	217	6	5	40
1247	217	7	1	200
1248	217	8	74	5
1249	218	0	41	15
1250	218	1	107	100
1251	218	2	113	20
1252	218	3	114	1
1253	218	4	8	2
1254	218	5	78	5
1255	218	6	5	40
1256	218	7	1	200
1257	218	8	74	5
1258	219	0	41	15
1259	219	1	107	100
1260	219	2	113	20
1261	219	3	114	1
1262	219	4	8	2
1263	219	5	78	5
1264	219	6	5	40
1265	219	7	1	200
1266	219	8	74	5
1267	220	0	41	15
1268	220	1	107	100
1269	220	2	113	20
1270	220	3	114	1
1271	220	4	8	2
1272	220	5	78	5
1273	220	6	5	40
1274	220	7	1	200
1275	220	8	74	5
1276	221	0	41	15
1277	221	1	107	100
1278	221	2	113	20
1279	221	3	114	1
1280	221	4	8	2
1281	221	5	78	5
1282	221	6	5	40
1283	221	7	1	200
1284	221	8	74	5
1285	222	0	41	15
1286	222	1	107	100
1287	222	2	113	20
1288	222	3	114	1
1289	222	4	8	2
1290	222	5	78	5
1291	222	6	5	40
1292	222	7	1	200
1293	222	8	74	5
1294	223	0	41	15
1295	223	1	107	100
1296	223	2	113	20
1297	223	3	114	1
1298	223	4	8	2
1299	223	5	78	5
1300	223	6	5	40
1301	223	7	1	200
1302	223	8	74	5
1303	224	0	41	15
1304	224	1	107	100
1305	224	2	113	20
1306	224	3	114	1
1307	224	4	8	2
1308	224	5	78	5
1309	224	6	5	40
1310	224	7	1	200
1311	224	8	74	5
1312	225	0	3	105
1313	225	1	4	300
1314	225	2	6	1000
1315	225	3	8	70
1316	225	4	9	15
1317	225	5	34	3
1318	225	6	35	3
1319	225	7	30	5
1320	225	8	32	5
1321	225	9	5	40
1322	226	0	3	150
1323	226	1	4	375
1324	226	2	6	1300
1325	226	3	8	70
1326	226	4	9	15
1327	226	5	34	3
1328	226	6	35	3
1329	226	7	30	5
1330	226	8	32	5
1331	226	9	5	60
1332	227	0	3	195
1333	227	1	4	450
1334	227	2	6	1600
1335	227	3	8	70
1336	227	4	9	15
1337	227	5	34	3
1338	227	6	35	3
1339	227	7	30	5
1340	227	8	32	5
1341	227	9	5	80
1342	228	0	3	240
1343	228	1	4	495
1344	228	2	6	1900
1345	228	3	8	70
1346	228	4	9	15
1347	228	5	34	3
1348	228	6	35	3
1349	228	7	30	5
1350	228	8	32	5
1351	228	9	5	100
1352	229	0	3	285
1353	229	1	4	555
1354	229	2	6	2200
1355	229	3	8	70
1356	229	4	9	15
1357	229	5	34	3
1358	229	6	35	3
1359	229	7	30	5
1360	229	8	32	5
1361	229	9	5	120
1362	230	0	8	20
1363	230	1	114	10
1364	231	0	8	150
1365	231	1	9	15
1366	231	2	3	300
1367	231	3	4	1000
1368	231	4	6	2500
1369	231	5	34	4
1370	231	6	35	4
1371	231	7	30	10
1372	231	8	32	30
1373	231	9	5	600
1374	232	0	1	300
1375	232	1	113	30
1376	232	2	6	250
1377	232	3	5	30
1378	232	4	8	10
1379	232	5	114	4
1380	232	6	78	20
1381	232	7	74	10
1382	232	8	80	10
1383	233	0	1	300
1384	233	1	113	30
1385	233	2	6	250
1386	233	3	5	30
1387	233	4	8	8
1388	233	5	114	3
1389	233	6	78	20
1390	233	7	74	10
1391	233	8	80	5
1392	234	0	1	250
1393	234	1	113	25
1394	234	2	6	200
1395	234	3	5	25
1396	234	4	8	6
1397	234	5	114	2
1398	234	6	78	15
1399	234	7	74	5
1400	235	0	1	200
1401	235	1	113	20
1402	235	2	6	150
1403	235	3	5	20
1404	235	4	8	4
1405	235	5	114	1
1406	235	6	78	10
1407	236	0	1	150
1408	236	1	113	15
1409	236	2	6	100
1410	236	3	5	15
1411	236	4	8	2
1412	237	0	1	100
1413	237	1	113	10
1414	237	2	6	100
1415	237	3	5	10
1416	238	0	1	400
1417	238	1	113	30
1418	238	2	6	250
1419	238	3	5	45
1420	238	4	8	15
1421	238	5	114	5
1422	238	6	78	20
1423	238	7	74	20
1424	238	8	80	15
1425	239	0	41	8
1426	239	1	107	25
1427	239	2	113	10
1428	239	3	5	20
1429	239	4	1	50
1430	240	0	41	12
1431	240	1	107	50
1432	240	2	113	15
1433	240	3	5	30
1434	240	4	1	100
1435	241	0	113	10
1436	241	1	6	50
1437	242	0	113	10
1438	242	1	6	50
1439	243	0	113	10
1440	243	1	6	50
1441	244	0	113	10
1442	244	1	6	50
1443	245	0	113	10
1444	245	1	6	50
1445	246	0	113	10
1446	246	1	6	50
1447	247	0	113	10
1448	247	1	6	50
1449	248	0	113	10
1450	248	1	6	50
1451	249	0	113	10
1452	249	1	6	50
1453	250	0	113	10
1454	250	1	6	50
1455	250	2	1	50
1456	250	3	5	10
1457	250	4	78	5
1458	250	5	114	1
1459	250	6	8	2
1460	251	0	9	5
1461	251	1	25	5
1462	251	2	125	5
1463	251	3	1	2000
1464	251	4	5	600
1465	251	5	113	1200
1466	251	6	80	140
1467	252	0	41	15
1468	252	1	107	100
1469	252	2	113	20
1470	252	3	114	1
1471	252	4	8	2
1472	252	5	78	5
1473	252	6	5	40
1474	252	7	1	200
1475	252	8	74	5
